Minimize
  - 94 y_0 - 54 y_1 - 96 y_2 - 102 y_3 - 100 y_4 - 93 y_5 - 102 y_6 - 41 y_7
   - 67 y_8 - 44 y_9 - 36 y_10 - 87 y_11 - 72 y_12 - 75 y_13 - 49 y_14
   - 98 y_15 - 76 y_16 - 7 y_17 - 103 y_18 - 54 y_19 - 14 y_20 - 65 y_21
   - 40 y_22 - 74 y_23 - 37 y_24 - 102 y_25 - 90 y_26 - 52 y_27 - 106 y_28
   - 102 y_29 - 53 y_30 - 108 y_31 - 43 y_32 - 114 y_33 - 80 y_34 - 18 y_35
   - 55 y_36 - 51 y_37 - 82 y_38 - 102 y_39 - 100 y_40 - 21 y_41 - 56 y_42
   - 80 y_43 - 70 y_44 - 87 y_45 - 88 y_46 - 37 y_47 - 91 y_48 - 78 y_49
   - 95 y_50 - 49 y_51 - 37 y_52 - 43 y_53 - 68 y_54 - 103 y_55 - 78 y_56
   - 110 y_57 - 83 y_58 - 114 y_59 - 77 y_60 - 26 y_61 - 73 y_62 - 64 y_63
   - 58 y_64 - 98 y_65 - 68 y_66 - 85 y_68 - 22 y_69 - 112 y_70 - 107 y_71
   - 112 y_72 - 100 y_73 - 52 y_74 - 102 y_75 - 36 y_76 - 106 y_77
   - 50 y_78 - 69 y_79 - 62 y_80 - 91 y_81 - 108 y_82 - 30 y_83 - 104 y_84
   - 105 y_85 - 111 y_86 - 123 y_87 - 73 y_88 - 79 y_89 - 105 y_90
   - 115 y_91 - 18 y_92 - 90 y_93 - 71 y_94 - 109 y_95 - 88 y_96 - 48 y_97
   - 92 y_98 - 73 y_99 + 7438 Constant
Subject To
 c_0: y_85 = 1
 c_1_0: y_0 + y_2 + y_25 + y_45 >= 1
 c_1_1: y_1 + y_37 + y_74 >= 1
 c_1_2: y_0 + y_2 + y_45 >= 1
 c_1_3: y_3 + y_18 + y_28 + y_77 >= 1
 c_1_4: y_4 + y_40 + y_73 >= 1
 c_1_5: y_5 + y_81 + y_93 + y_98 >= 1
 c_1_6: y_6 + y_31 + y_39 + y_95 >= 1
 c_1_7: y_7 + y_32 + y_78 + y_97 >= 1
 c_1_8: y_8 + y_44 + y_88 >= 1
 c_1_9: y_9 + y_19 + y_22 + y_51 + y_52 + y_74 >= 1
 c_1_10: y_10 >= 1
 c_1_11: y_11 + y_43 + y_58 >= 1
 c_1_12: y_12 + y_60 + y_62 + y_94 >= 1
 c_1_13: y_13 + y_49 + y_58 + y_99 >= 1
 c_1_14: y_14 + y_27 + y_53 >= 1
 c_1_15: y_15 + y_29 + y_48 + y_50 + y_90 >= 1
 c_1_16: y_16 >= 1
 c_1_17: y_17 + y_20 + y_67 >= 1
 c_1_18: y_3 + y_18 + y_71 + y_77 + y_82 + y_85 >= 1
 c_1_19: y_9 + y_19 + y_51 + y_74 >= 1
 c_1_20: y_17 + y_20 + y_35 + y_41 + y_69 + y_92 >= 1
 c_1_21: y_21 >= 1
 c_1_22: y_9 + y_22 + y_51 + y_52 >= 1
 c_1_23: y_23 + y_34 + y_44 + y_56 + y_88 >= 1
 c_1_24: y_24 + y_47 + y_76 >= 1
 c_1_25: y_0 + y_25 >= 1
 c_1_26: y_26 + y_68 >= 1
 c_1_27: y_14 + y_27 + y_53 >= 1
 c_1_28: y_3 + y_28 + y_29 + y_72 + y_77 + y_90 >= 1
 c_1_29: y_15 + y_28 + y_29 + y_50 + y_86 + y_90 >= 1
 c_1_30: y_30 + y_51 >= 1
 c_1_31: y_6 + y_31 + y_39 + y_95 >= 1
 c_1_32: y_7 + y_32 + y_78 + y_97 >= 1
 c_1_33: y_33 + y_72 + y_77 + y_87 >= 1
 c_1_34: y_23 + y_34 + y_44 + y_56 >= 1
 c_1_35: y_20 + y_35 + y_41 + y_69 + y_92 >= 1
 c_1_36: y_36 + y_42 + y_64 + y_78 + y_97 >= 1
 c_1_37: y_1 + y_37 >= 1
 c_1_38: y_38 + y_60 >= 1
 c_1_39: y_6 + y_31 + y_39 + y_95 >= 1
 c_1_40: y_4 + y_40 + y_65 + y_73 >= 1
 c_1_41: y_20 + y_35 + y_41 + y_61 + y_69 + y_92 >= 1
 c_1_42: y_36 + y_42 + y_64 + y_78 >= 1
 c_1_43: y_11 + y_43 + y_99 >= 1
 c_1_44: y_8 + y_23 + y_34 + y_44 + y_56 + y_88 >= 1
 c_1_45: y_0 + y_2 + y_45 + y_89 >= 1
 c_1_46: y_46 >= 1
 c_1_47: y_24 + y_47 + y_53 + y_76 >= 1
 c_1_48: y_15 + y_48 + y_50 + y_96 >= 1
 c_1_49: y_13 + y_49 + y_58 + y_99 >= 1
 c_1_50: y_15 + y_29 + y_48 + y_50 + y_90 >= 1
 c_1_51: y_9 + y_19 + y_22 + y_30 + y_51 + y_74 >= 1
 c_1_52: y_9 + y_22 + y_52 + y_83 >= 1
 c_1_53: y_14 + y_27 + y_47 + y_53 >= 1
 c_1_54: y_54 + y_63 + y_66 + y_80 + y_99 >= 1
 c_1_55: y_55 + y_84 >= 1
 c_1_56: y_23 + y_34 + y_44 + y_56 + y_88 + y_89 >= 1
 c_1_57: y_57 + y_59 + y_70 + y_86 + y_90 >= 1
 c_1_58: y_11 + y_13 + y_49 + y_58 >= 1
 c_1_59: y_57 + y_59 + y_70 + y_95 >= 1
 c_1_60: y_12 + y_38 + y_60 >= 1
 c_1_61: y_41 + y_61 + y_69 + y_83 + y_92 >= 1
 c_1_62: y_12 + y_62 + y_94 >= 1
 c_1_63: y_54 + y_63 + y_66 + y_80 >= 1
 c_1_64: y_36 + y_42 + y_64 + y_78 >= 1
 c_1_65: y_40 + y_65 >= 1
 c_1_66: y_54 + y_63 + y_66 + y_80 + y_99 >= 1
 c_1_67: y_17 + y_67 >= 1
 c_1_68: y_26 + y_68 >= 1
 c_1_69: y_20 + y_35 + y_41 + y_61 + y_69 + y_83 + y_92 >= 1
 c_1_70: y_57 + y_59 + y_70 + y_95 >= 1
 c_1_71: y_18 + y_71 + y_75 + y_82 + y_85 + y_91 >= 1
 c_1_72: y_28 + y_33 + y_72 + y_86 + y_90 >= 1
 c_1_73: y_4 + y_40 + y_73 >= 1
 c_1_74: y_1 + y_9 + y_19 + y_51 + y_74 >= 1
 c_1_75: y_71 + y_75 + y_82 + y_85 >= 1
 c_1_76: y_24 + y_47 + y_76 >= 1
 c_1_77: y_3 + y_18 + y_28 + y_33 + y_77 + y_82 >= 1
 c_1_78: y_7 + y_32 + y_36 + y_42 + y_64 + y_78 + y_97 >= 1
 c_1_79: y_79 + y_94 >= 1
 c_1_80: y_54 + y_63 + y_66 + y_80 >= 1
 c_1_81: y_5 + y_81 + y_93 + y_98 >= 1
 c_1_82: y_18 + y_71 + y_75 + y_77 + y_82 + y_85 + y_91 >= 1
 c_1_83: y_52 + y_61 + y_69 + y_83 >= 1
 c_1_84: y_55 + y_84 >= 1
 c_1_85: y_18 + y_71 + y_75 + y_82 + y_85 >= 1
 c_1_86: y_29 + y_57 + y_72 + y_86 + y_90 >= 1
 c_1_87: y_33 + y_87 >= 1
 c_1_88: y_8 + y_23 + y_44 + y_56 + y_88 + y_89 >= 1
 c_1_89: y_45 + y_56 + y_88 + y_89 >= 1
 c_1_90: y_15 + y_28 + y_29 + y_50 + y_57 + y_72 + y_86 + y_90 >= 1
 c_1_91: y_71 + y_82 + y_91 >= 1
 c_1_92: y_20 + y_35 + y_41 + y_61 + y_69 + y_92 >= 1
 c_1_93: y_5 + y_81 + y_93 >= 1
 c_1_94: y_12 + y_62 + y_79 + y_94 >= 1
 c_1_95: y_6 + y_31 + y_39 + y_59 + y_70 + y_95 >= 1
 c_1_96: y_48 + y_96 >= 1
 c_1_97: y_7 + y_32 + y_36 + y_78 + y_97 >= 1
 c_1_98: y_5 + y_81 + y_98 >= 1
 c_1_99: y_13 + y_43 + y_49 + y_54 + y_66 + y_99 >= 1
Bounds
 Constant = 1
Binaries
 y_0 y_1 y_2 y_3 y_4 y_5 y_6 y_7 y_8 y_9 y_10 y_11 y_12 y_13 y_14 y_15 y_16
 y_17 y_18 y_19 y_20 y_21 y_22 y_23 y_24 y_25 y_26 y_27 y_28 y_29 y_30 y_31
 y_32 y_33 y_34 y_35 y_36 y_37 y_38 y_39 y_40 y_41 y_42 y_43 y_44 y_45 y_46
 y_47 y_48 y_49 y_50 y_51 y_52 y_53 y_54 y_55 y_56 y_57 y_58 y_59 y_60 y_61
 y_62 y_63 y_64 y_65 y_66 y_67 y_68 y_69 y_70 y_71 y_72 y_73 y_74 y_75 y_76
 y_77 y_78 y_79 y_80 y_81 y_82 y_83 y_84 y_85 y_86 y_87 y_88 y_89 y_90 y_91
 y_92 y_93 y_94 y_95 y_96 y_97 y_98 y_99
End
